NAME : eil76.209.tour
COMMENT : Length = 209
COMMENT : Found by LKH [Keld Helsgaun] Wed May 29 17:05:38 2013
TYPE : TOUR
DIMENSION : 16
TOUR_SECTION
62
2
48
37
15
13
14
59
11
72
39
25
50
49
41
42
-1
EOF
